
Gurobi 11.0.3 (linux64) logging started Sun Aug 24 14:31:33 2025

Set parameter LogFile to value "/home/yihong/Coding/OR_SUC/SUC_ALSO_results_bigM100000_thread4/case24_ieee_rts_theta0.1_epsilon0.4_gurobi_seed10000_num_gen10_N_WDR50_load_scaling_factor2_ori_T2quadra_cost.txt"
Set parameter TimeLimit to value 3600
Gurobi Optimizer version 11.0.3 build v11.0.3rc0 (linux64 - "Ubuntu 20.04.6 LTS")

CPU model: AMD EPYC 7532 32-Core Processor, instruction set [SSE2|AVX|AVX2]
Thread count: 64 physical cores, 128 logical processors, using up to 4 threads

Academic license 2399124 - for non-commercial use only - registered to yi___@ed.ac.uk
Optimize a model with 8078 rows, 371 columns and 166142 nonzeros
Model fingerprint: 0xcff0ecc5
Model has 20 quadratic constraints
Variable types: 351 continuous, 20 integer (20 binary)
Coefficient statistics:
  Matrix range     [4e-04, 3e+04]
  QMatrix range    [2e-03, 7e-03]
  QLMatrix range   [1e+00, 4e+02]
  Objective range  [1e+00, 1e+00]
  Bounds range     [1e+00, 1e+00]
  RHS range        [1e-02, 1e+04]
Presolve removed 2023 rows and 182 columns
Presolve time: 0.11s
Presolved: 6055 rows, 189 columns, 124457 nonzeros
Presolved model has 20 quadratic constraint(s)
Variable types: 169 continuous, 20 integer (20 binary)

Root relaxation: objective 3.238513e+03, 200 iterations, 0.05 seconds (0.10 work units)

    Nodes    |    Current Node    |     Objective Bounds      |     Work
 Expl Unexpl |  Obj  Depth IntInf | Incumbent    BestBd   Gap | It/Node Time

     0     0 3238.51251    0    8          - 3238.51251      -     -    0s
     0     0 121398.159    0    8          - 121398.159      -     -    0s
     0     0 121918.450    0    8          - 121918.450      -     -    0s
     0     0 123845.675    0    8          - 123845.675      -     -    0s
     0     0 124042.781    0    8          - 124042.781      -     -    0s
     0     0 124191.175    0    8          - 124191.175      -     -    0s
     0     0 124288.815    0    8          - 124288.815      -     -    0s
     0     0 124809.988    0    8          - 124809.988      -     -    0s
     0     0 124809.988    0    4          - 124809.988      -     -    0s
H    0     0                    130762.37582 124809.988  4.55%     -    0s
H    0     0                    125045.16789 124809.988  0.19%     -    0s
H    0     0                    124827.29818 124827.298  0.00%     -    2s
*    0     0               0    124827.29818 124827.298  0.00%     -    2s

Cutting planes:
  Implied bound: 2
  MIR: 12
  Flow cover: 4
  RLT: 3

Explored 1 nodes (441 simplex iterations) in 2.17 seconds (1.76 work units)
Thread count was 4 (of 128 available processors)

Solution count 3: 124827 125045 130762 

Optimal solution found (tolerance 1.00e-03)
Best objective 1.248272981768e+05, best bound 1.248272980854e+05, gap 0.0000%
